c ---- [ banner ] ------------------------------------------------------------
c
c Kissat SAT Solver
c 
c Copyright (c) 2021-2024 Armin Biere University of Freiburg
c Copyright (c) 2019-2021 Armin Biere Johannes Kepler University Linz
c 
c Version 4.0.1 43f02cf3e992cb44653b35e5cb26f93281552ae0
c gcc (Ubuntu 13.2.0-23ubuntu4) 13.2.0 -W -Wall -O3 -DNDEBUG
c Thu Sep 12 12:27:46 CEST 2024 Linux abryzen9 6.8.0-41-generic x86_64
c
c ---- [ parsing ] -----------------------------------------------------------
c
c opened and reading DIMACS file:
c
c   /data/artifact/AMulet2.0_artifact/exp4/cnf_resyn3_64/64_64_U1_WT_RC_Multgen_resyn3.cnf
c
c parsed 'p cnf 26527 117817' header
c closing input after reading 2338399 bytes (2 MB)
c finished parsing after 0.02 seconds
c
c ---- [ options ] -----------------------------------------------------------
c
c --stable=0                       (different from default '1')
c
c ---- [ solving ] -----------------------------------------------------------
c
c  seconds switched rate     size/glue tier1  binary           remaining
c         MB reductions conflicts size  tier2     irredundant
c          level restarts redundant glue  trail           variables
c
c *  0.02 10 0 0 0  0 0   0   0 0.0 0 0 0 0 0% 10504 107311 26524 100%
c (  0.03 11 0 0 0  0 0   0   0 0.0 0 0 0 0 0% 10504 107311 26524 100%
c .  0.04 12 0 0 0  0 0   0   0 0.0 0 0 0 0 0% 10500 107311 26524 100%
c c  0.08 16 0 0 0  0 0   0   0 0.0 0 0 0 0 0% 10599 107310 26522 100%
c d  0.08 16 0 0 0  0 0   0   0 0.0 0 0 0 0 0% 10595 107310 26522 100%
c =  0.12 16 0 0 0  0 0   0   0 0.0 0 0 0 0 0% 10981 107310 26327 99%
c d  0.12 16 0 0 0  0 0   0   0 0.0 0 0 0 0 0% 10591 107310 26327 99%
c f  0.22 16 0 0 0  0 0   0   0 0.0 0 0 0 0 0% 15821 99099 29266 110%
c e  0.42 24 0 0 0  0 0   0   0 0.0 0 0 0 0 0% 10042 107222 20216 76%
c )  0.42 24 0 0 0  0 0   0   0 0.0 0 0 0 0 0% 10042 107222 20216 76%
c {  0.45 24 0 0 0  0 0   0   0 0.0 0 0 2 6 0% 10042 107222 20216 76%
c -  0.71 24 194 0 1 261 39 1003 646 4.9 25 5 3 7 15% 10152 107211 20216 76%
c -  1.08 24 265 0 2 423 46 2004 1301 4.5 25 6 3 9 22% 10229 107170 20216 76%
c d  1.34 24 294 0 2 510 52 2503 1703 5.4 32 6 3 10 24% 10215 107168 20199 76%
c u  1.37 24 294 0 2 510 52 2503 1365 5.4 32 6 3 10 24% 10230 107168 20199 76%
c v  1.41 24 294 0 2 510 52 2503 1131 5.4 32 6 3 10 24% 10230 107168 20199 76%
c w  1.44 24 294 0 2 510 52 2503 1131 5.4 32 6 3 10 24% 10230 107168 20199 76%
c x  1.46 24 294 0 2 510 52 2503 1131 5.4 32 6 3 10 24% 10397 106851 20199 76%
c =  1.55 24 294 0 2 510 52 2503 1131 5.4 32 6 3 10 24% 10965 106851 19915 75%
c d  1.56 24 294 0 2 510 52 2503 1126 5.4 32 6 3 10 24% 10385 106851 19915 75%
c
c  seconds   switched   rate       size/glue tier1     binary           remaining
c         MB  reductions conflicts       size  tier2       irredundant
c           level restarts    redundant    glue    trail           variables
c
c t  1.58 24 294 0 2 510 52 2503 1126 5.4 32 6 3 10 24% 10382 106851 19915 75%
c f  1.61 24 294 0 2 510 52 2503 1126 5.4 32 6 3 10 24% 10965 105677 20502 77%
c c  1.70 21 294 0 2 510 52 2503 1125 5.4 32 6 3 10 24% 10970 105669 20501 77%
c d  1.71 21 294 0 2 510 52 2503 1125 5.4 32 6 3 10 24% 10968 105669 20501 77%
c u  1.73 21 294 0 2 510 52 2503 1089 5.4 32 6 3 10 24% 10968 105669 20501 77%
c v  1.76 21 294 0 2 510 52 2503 1053 5.4 32 6 3 10 24% 10968 105669 20501 77%
c w  1.83 24 294 0 2 510 52 2503 1053 5.4 32 6 3 10 24% 10968 105669 20501 77%
c x  1.86 24 294 0 2 510 52 2503 1053 5.4 32 6 3 10 24% 10968 105470 20501 77%
c =  1.95 24 294 0 2 510 52 2503 1053 5.4 32 6 3 10 24% 11024 105470 20473 77%
c d  1.96 24 294 0 2 510 52 2503 1053 5.4 32 6 3 10 24% 10963 105470 20473 77%
c f  2.02 24 294 0 2 510 52 2503 1053 5.4 32 6 3 10 24% 10981 105434 20483 77%
c -  2.20 25 310 0 3 604 46 3419 1591 4.7 28 6 3 11 23% 11017 105432 20483 77%
c -  2.67 25 311 0 4 816 44 5151 2710 3.8 26 7 3 11 25% 11086 105430 20483 77%
c -  2.96 25 304 0 5 913 38 7151 3528 3.7 24 7 2 9 23% 11275 105422 20483 77%
c d  3.21 25 298 0 5 1015 38 7709 4012 3.7 25 7 2 9 23% 11153 105422 20418 77%
c u  3.24 25 298 0 5 1015 38 7709 3531 3.7 25 7 2 9 23% 11179 105422 20418 77%
c v  3.28 25 298 0 5 1015 38 7709 2987 3.7 25 7 2 9 23% 11179 105422 20418 77%
c w  3.32 25 298 0 5 1015 38 7709 2983 3.7 25 7 2 9 23% 11179 105422 20418 77%
c x  3.35 25 298 0 5 1015 38 7709 2983 3.7 25 7 2 9 23% 11181 105134 20418 77%
c =  3.47 25 298 0 5 1015 38 7709 2983 3.7 25 7 2 9 23% 11887 105134 20065 76%
c
c  seconds   switched    rate       size/glue tier1    binary           remaining
c         MB  reductions  conflicts       size  tier2      irredundant
c           level  restarts    redundant    glue   trail           variables
c
c d  3.48 25 298 0 5 1015 38 7709 2957 3.7 25 7 2 9 23% 11087 105134 20064 76%
c t  3.50 25 298 0 5 1015 38 7709 2957 3.7 25 7 2 9 23% 11085 105134 20064 76%
c f  3.55 25 298 0 5 1015 38 7709 2957 3.7 25 7 2 9 23% 11393 104643 20220 76%
c u  3.60 25 298 0 5 1015 38 7709 2869 3.7 25 7 2 9 23% 11395 104643 20220 76%
c v  3.63 25 298 0 5 1015 38 7709 2793 3.7 25 7 2 9 23% 11395 104643 20220 76%
c w  3.68 25 298 0 5 1015 38 7709 2787 3.7 25 7 2 9 23% 11395 104643 20220 76%
c x  3.71 25 298 0 5 1015 38 7709 2787 3.7 25 7 2 9 23% 11395 104639 20220 76%
c =  3.83 25 298 0 5 1015 38 7709 2787 3.7 25 7 2 9 23% 12141 104639 19847 75%
c d  3.84 25 298 0 5 1015 38 7709 2771 3.7 25 7 2 9 23% 11287 104639 19847 75%
c t  3.86 25 298 0 5 1015 38 7709 2771 3.7 25 7 2 9 23% 11273 104639 19847 75%
c f  3.91 25 298 0 5 1015 38 7709 2771 3.7 25 7 2 9 23% 13383 101474 20902 79%
c -  4.26 25 297 0 6 1110 36 9387 3623 3.8 25 7 2 9 23% 13449 101467 20902 79%
c o  4.43 25 305 0 6 1159 35 10107 4264 3.7 24 7 2 9 24% 13464 101467 20902 79%
c -  5.09 27 296 0 7 1367 35 11838 4996 3.8 28 7 2 9 25% 13532 101467 20902 79%
c s  5.25 27 301 0 7 1397 35 12511 5572 3.9 28 7 2 9 25% 13573 95257 20902 79%
c e  5.38 27 301 0 7 1397 35 12511 5572 3.9 28 7 2 9 25% 12952 95794 20480 77%
c s  5.38 27 301 0 7 1397 35 12511 5572 3.9 28 7 2 9 25% 12956 95692 20480 77%
c e  5.39 27 301 0 7 1397 35 12511 5572 3.9 28 7 2 9 25% 12955 95691 20479 77%
c ^  5.39 27 301 0 7 1397 35 12511 5572 3.9 28 7 2 9 25% 12955 95691 20479 77%
c -  5.60 27 298 0 8 1454 33 14483 6262 3.8 26 7 2 8 23% 13047 95684 20479 77%
c
c  seconds   switched    rate        size/glue tier1    binary          remaining
c         MB  reductions   conflicts       size  tier2      irredundant
c           level  restarts     redundant    glue   trail          variables
c
c c  5.92 27 292 0 8 1521 32 15790 7395 3.8 26 7 2 8 23% 13106 95551 20449 77%
c d  5.93 27 292 0 8 1521 32 15790 7377 3.8 26 7 2 8 23% 12844 95551 20331 77%
c u  5.97 27 292 0 8 1521 32 15790 6418 3.8 26 7 2 8 23% 12868 95551 20331 77%
c v  6.02 27 292 0 8 1521 32 15790 5646 3.8 26 7 2 8 23% 12870 95551 20331 77%
c w  6.12 27 292 0 8 1521 32 15790 5631 3.8 26 7 2 8 23% 12870 95551 20331 77%
c =  6.30 27 292 0 8 1521 32 15790 5631 3.8 26 7 2 8 23% 13306 95551 20113 76%
c d  6.31 27 292 0 8 1521 32 15790 5598 3.8 26 7 2 8 23% 12734 95551 20110 76%
c t  6.33 27 292 0 8 1521 32 15790 5598 3.8 26 7 2 8 23% 12646 95551 20110 76%
c f  6.39 27 292 0 8 1521 32 15790 5598 3.8 26 7 2 8 23% 12671 95487 20129 76%
c u  6.44 27 292 0 8 1521 32 15790 5403 3.8 26 7 2 8 23% 12679 95487 20129 76%
c v  6.48 27 292 0 8 1521 32 15790 5287 3.8 26 7 2 8 23% 12679 95487 20129 76%
c w  6.55 27 292 0 8 1521 32 15790 5272 3.8 26 7 2 8 23% 12679 95487 20129 76%
c x  6.59 27 292 0 8 1521 32 15790 5272 3.8 26 7 2 8 23% 12681 95366 20129 76%
c =  6.78 27 292 0 8 1521 32 15790 5272 3.8 26 7 2 8 23% 12993 95366 19973 75%
c d  6.79 27 292 0 8 1521 32 15790 5266 3.8 26 7 2 8 23% 12579 95366 19973 75%
c t  6.81 27 292 0 8 1521 32 15790 5266 3.8 26 7 2 8 23% 12577 95366 19973 75%
c f  6.84 27 292 0 8 1521 32 15790 5266 3.8 26 7 2 8 23% 12580 95360 19974 75%
c -  7.28 27 296 0 9 1687 33 17311 5879 3.8 28 7 2 8 24% 12622 95352 19974 75%
c -  8.00 27 297 0 10 1922 31 20312 7429 3.7 28 8 2 7 24% 12722 95351 19974 75%
c o  8.01 27 296 0 10 1923 31 20408 7514 3.7 28 8 2 7 24% 12722 95351 19974 75%
c
c  seconds   switched     rate        size/glue tier1    binary          remaining
c         MB   reductions   conflicts       size  tier2      irredundant
c           level   restarts     redundant    glue   trail          variables
c
c -  8.97 27 296 0 11 2244 31 23474 8875 4.0 31 8 2 7 24% 12820 95351 19974 75%
c s  9.40 27 292 0 11 2368 31 25015 10178 4.0 32 8 2 7 25% 12882 94313 19974 75%
c e  9.53 27 292 0 11 2368 31 25015 10178 4.0 32 8 2 7 25% 10419 97893 18441 70%
c 2  9.53 27 292 0 11 2368 31 25015 10178 4.0 32 8 2 7 25% 10417 97893 18441 70%
c s  9.54 27 292 0 11 2368 31 25015 10178 4.0 32 8 2 7 25% 10449 97439 18441 70%
c e  9.55 27 292 0 11 2368 31 25015 10178 4.0 32 8 2 7 25% 10440 97452 18437 70%
c ^  9.55 27 292 0 11 2368 31 25015 10178 4.0 32 8 2 7 25% 10440 97452 18437 70%
c -  9.91 27 295 0 12 2478 31 26790 9275 3.9 32 8 2 7 24% 10498 97441 18437 70%
c c 10.01 27 294 0 12 2478 30 26919 9387 3.9 31 8 2 7 24% 10545 97195 18400 69%
c d 10.02 27 294 0 12 2478 30 26919 9359 3.9 31 8 2 7 24% 10284 97195 18289 69%
c u 10.08 27 294 0 12 2478 30 26919 8264 3.9 31 8 2 7 24% 10303 97195 18289 69%
c v 10.13 27 294 0 12 2478 30 26919 7330 3.9 31 8 2 7 24% 10304 97195 18289 69%
c w 10.14 27 294 0 12 2478 30 26919 7328 3.9 31 8 2 7 24% 10304 97195 18289 69%
c = 10.45 27 294 0 12 2478 30 26919 7328 3.9 31 8 2 7 24% 14248 97195 16317 62%
c d 10.46 27 294 0 12 2478 30 26919 7137 3.9 31 8 2 7 24% 10184 97195 16316 62%
c t 10.48 27 294 0 12 2478 30 26919 7137 3.9 31 8 2 7 24% 10044 97195 16316 62%
c f 10.55 27 294 0 12 2478 30 26919 7137 3.9 31 8 2 7 24% 10079 97073 16336 62%
c c 10.62 27 294 0 12 2478 30 26919 7137 3.9 31 8 2 7 24% 10084 97057 16334 62%
c d 10.63 27 294 0 12 2478 30 26919 7137 3.9 31 8 2 7 24% 10080 97057 16334 62%
c u 10.68 27 294 0 12 2478 30 26919 6540 3.9 31 8 2 7 24% 10084 97057 16334 62%
c
c  seconds   switched     rate        size/glue tier1    binary          remaining
c         MB   reductions   conflicts       size  tier2      irredundant
c           level   restarts     redundant    glue   trail          variables
c
c v 10.71 27 294 0 12 2478 30 26919 6395 3.9 31 8 2 7 24% 10084 97057 16334 62%
c w 10.72 27 294 0 12 2478 30 26919 6394 3.9 31 8 2 7 24% 10084 97057 16334 62%
c = 11.01 27 294 0 12 2478 30 26919 6394 3.9 31 8 2 7 24% 13868 97049 14442 54%
c d 11.02 27 294 0 12 2478 30 26919 6310 3.9 31 8 2 7 24% 10045 97049 14442 54%
c t 11.04 27 294 0 12 2478 30 26919 6310 3.9 31 8 2 7 24% 9860 97049 14442 54%
c f 11.09 27 294 0 12 2478 30 26919 6310 3.9 31 8 2 7 24% 9925 96824 14488 55%
c - 11.88 27 284 0 13 2766 30 30257 8210 3.9 31 8 2 7 25% 10019 96801 14488 55%
c - 12.51 27 274 0 14 2949 28 33864 10230 3.8 30 8 2 7 25% 10054 96794 14488 55%
c - 13.40 27 259 0 15 3248 27 37605 11963 3.8 30 8 2 6 25% 10075 96792 14488 55%
c o 13.78 27 249 0 15 3372 26 40479 14590 3.7 29 8 2 6 25% 10108 96777 14488 55%
c i 13.97 27 247 0 15 3447 26 41218 15272 3.7 29 8 2 6 25% 10118 96774 14483 55%
c d 13.98 27 247 0 15 3447 26 41247 15204 3.7 29 8 2 6 25% 10130 96746 14482 55%
c d 13.99 27 247 0 15 3447 26 41247 15203 3.7 29 8 2 6 25% 10120 96746 14477 55%
c u 14.08 27 247 0 15 3447 26 41247 13273 3.7 29 8 2 6 25% 10135 96746 14477 55%
c v 14.14 27 247 0 15 3447 26 41247 12750 3.7 29 8 2 6 25% 10136 96746 14477 55%
c w 14.19 27 247 0 15 3447 26 41247 12750 3.7 29 8 2 6 25% 10136 96746 14477 55%
c x 14.27 27 247 0 15 3447 26 41247 12750 3.7 29 8 2 6 25% 10141 85537 14477 55%
c = 14.57 27 247 0 15 3447 26 41247 12750 3.7 29 8 2 6 25% 11251 85521 13919 52%
c d 14.58 27 247 0 15 3447 26 41247 12679 3.7 29 8 2 6 25% 10113 85517 13917 52%
c t 14.60 27 247 0 15 3447 26 41247 12679 3.7 29 8 2 6 25% 10011 85517 13917 52%
c
c  seconds   switched     rate         size/glue tier1    binary          remaining
c         MB   reductions   conflicts        size  tier2      irredundant
c           level   restarts      redundant    glue   trail          variables
c
c f 14.62 27 247 0 15 3447 26 41247 12679 3.7 29 8 2 6 25% 10033 85435 13936 53%
c c 14.68 27 247 0 15 3447 26 41247 12675 3.7 29 8 2 6 25% 10028 85411 13933 53%
c d 14.69 27 247 0 15 3447 26 41247 12675 3.7 29 8 2 6 25% 10022 85411 13933 53%
c u 14.76 27 247 0 15 3447 26 41247 12174 3.7 29 8 2 6 25% 10033 85411 13933 53%
c v 14.86 27 247 0 15 3447 26 41247 11265 3.7 29 8 2 6 25% 10033 85411 13933 53%
c w 14.98 27 247 0 15 3447 26 41247 11258 3.7 29 8 2 6 25% 10033 85411 13933 53%
c t 15.18 27 247 0 15 3447 26 41247 11258 3.7 29 8 2 6 25% 10026 85411 13933 53%
c - 15.20 27 247 0 16 3447 26 41477 10074 3.7 29 8 2 6 25% 10027 85411 13933 53%
c - 15.61 27 240 0 17 3678 25 45477 12032 3.7 28 8 2 6 25% 10056 85411 13933 53%
c i 15.69 27 239 0 17 3730 25 46083 12545 3.7 28 8 2 6 25% 10080 85408 13932 53%
c i 15.99 27 236 0 17 3911 25 48050 14334 3.6 28 8 2 6 25% 10115 85408 13931 53%
c i 16.15 27 233 0 17 4048 25 49117 15278 3.6 28 8 2 6 25% 10138 85407 13929 53%
c - 16.28 27 233 0 18 4128 25 49600 13812 3.6 28 8 2 6 25% 10139 85407 13929 53%
c i 16.44 27 232 0 18 4255 25 50505 14634 3.7 28 8 2 6 25% 10153 85407 13928 53%
c i 16.44 27 232 0 18 4255 25 50514 14633 3.7 28 8 2 6 25% 10158 85407 13927 53%
c i 16.62 27 231 0 18 4359 25 51934 15955 3.6 28 8 2 6 25% 10174 85407 13925 52%
c s 16.69 27 230 0 18 4386 25 52120 16128 3.6 28 8 2 6 26% 10179 68152 13925 52%
c e 16.75 27 230 0 18 4386 25 52120 16128 3.6 28 8 2 6 26% 9252 69280 13432 51%
c 2 16.75 27 230 0 18 4386 25 52120 16128 3.6 28 8 2 6 26% 9242 69280 13432 51%
c s 16.76 27 230 0 18 4386 25 52120 16128 3.6 28 8 2 6 26% 9257 68728 13432 51%
c
c  seconds   switched     rate         size/glue tier1    binary         remaining
c         MB   reductions   conflicts        size  tier2     irredundant
c           level   restarts      redundant    glue   trail         variables
c
c e 16.77 27 230 0 18 4386 25 52120 16128 3.6 28 8 2 6 26% 9211 68774 13406 51%
c ^ 16.77 27 230 0 18 4386 25 52120 16128 3.6 28 8 2 6 26% 9211 68774 13406 51%
c i 16.79 27 230 0 18 4399 25 52237 15051 3.6 28 8 2 6 26% 9215 68774 13404 51%
c - 16.93 27 230 0 19 4507 25 53842 14442 3.6 28 8 2 6 26% 9244 68767 13404 51%
c i 17.02 27 229 0 19 4597 25 54541 15071 3.6 28 8 2 6 26% 9257 68767 13403 51%
c i 17.11 27 228 0 19 4649 25 55063 15542 3.6 28 8 2 6 26% 9265 68766 13402 51%
c i 17.16 27 228 0 19 4693 25 55343 15790 3.6 28 8 2 6 26% 9269 68766 13401 51%
c - 17.48 27 220 0 20 4920 25 58200 14324 3.6 28 8 1 6 26% 9293 68763 13401 51%
c d 17.60 27 219 0 20 5020 25 58874 14893 3.6 28 8 1 6 26% 9274 68729 13381 50%
c d 17.60 27 219 0 20 5020 25 58874 14887 3.6 28 8 1 6 26% 9258 68729 13373 50%
c u 17.63 27 219 0 20 5020 25 58874 13670 3.6 28 8 1 6 26% 9280 68729 13371 50%
c v 17.69 27 219 0 20 5020 25 58874 11385 3.6 28 8 1 6 26% 9290 68729 13370 50%
c w 17.75 27 219 0 20 5020 25 58874 11364 3.6 28 8 1 6 26% 9289 68729 13370 50%
c x 17.81 27 219 0 20 5020 25 58874 11357 3.6 28 8 1 6 26% 9391 67176 13370 50%
c d 17.81 27 219 0 20 5020 25 58874 11342 3.6 28 8 1 6 26% 9364 67170 13357 50%
c t 17.82 27 219 0 20 5020 25 58874 11342 3.6 28 8 1 6 26% 9280 67170 13357 50%
c f 17.84 27 219 0 20 5020 25 58874 11342 3.6 28 8 1 6 26% 9280 67082 13374 50%
c u 17.87 27 219 0 20 5020 25 58874 11072 3.6 28 8 1 6 26% 9287 67082 13374 50%
c v 17.91 27 219 0 20 5020 25 58874 10656 3.6 28 8 1 6 26% 9289 67082 13374 50%
c w 17.96 27 219 0 20 5020 25 58874 10623 3.6 28 8 1 6 26% 9289 67082 13374 50%
c
c  seconds   switched     rate         size/glue tier1    binary         remaining
c         MB   reductions   conflicts        size  tier2     irredundant
c           level   restarts      redundant    glue   trail         variables
c
c x 18.05 27 219 0 20 5020 25 58874 10619 3.6 28 8 1 6 26% 9313 66665 13374 50%
c = 18.30 27 219 0 20 5020 25 58874 10619 3.6 28 8 1 6 26% 9435 66665 13313 50%
c d 18.31 27 219 0 20 5020 25 58874 10556 3.6 28 8 1 6 26% 9306 66664 13311 50%
c t 18.32 27 219 0 20 5020 25 58874 10556 3.6 28 8 1 6 26% 9283 66664 13311 50%
c i 18.33 27 219 0 20 5020 25 58874 10556 3.6 28 8 1 6 26% 9283 66664 13311 50%
c i 18.39 27 218 0 20 5061 25 59308 10972 3.6 28 8 1 6 26% 9287 66664 13310 50%
c i 18.41 27 218 0 20 5081 25 59383 11038 3.6 28 8 1 6 26% 9289 66663 13309 50%
c i 18.50 27 215 0 20 5150 24 60338 11842 3.6 28 8 1 6 26% 9324 66661 13308 50%
c i 18.52 27 215 0 20 5171 24 60426 11921 3.6 28 8 1 6 26% 9327 66661 13307 50%
c i 18.80 27 212 0 20 5396 25 61772 13204 3.6 28 8 1 6 26% 9335 66658 13306 50%
c - 18.88 27 211 0 21 5451 24 62672 11436 3.5 28 8 1 6 26% 9322 66656 13306 50%
c i 19.09 27 208 0 21 5602 24 64797 13332 3.5 27 8 1 6 26% 9353 66655 13305 50%
c i 19.30 27 206 0 21 5731 24 66206 14677 3.5 27 8 2 6 26% 9359 66653 13304 50%
c i 19.32 27 206 0 21 5747 24 66436 14892 3.5 27 8 2 6 26% 9362 66653 13303 50%
c - 19.39 27 204 0 22 5790 24 67256 14222 3.5 27 8 2 6 26% 9356 66652 13303 50%
c i 19.39 27 204 0 22 5795 24 67337 14292 3.5 27 8 2 6 26% 9360 66652 13302 50%
c i 19.41 27 203 0 22 5796 24 67549 14467 3.5 27 8 2 6 26% 9365 66652 13301 50%
c i 19.55 27 202 0 22 5883 24 68443 15303 3.4 27 8 2 6 26% 9375 66652 13296 50%
c i 19.62 27 199 0 22 5905 23 69561 16328 3.4 27 8 2 6 27% 9393 66652 13295 50%
c o 19.77 27 198 0 22 5999 23 70479 17206 3.4 26 8 2 6 27% 9395 66652 13295 50%
c
c  seconds   switched     rate         size/glue tier1    binary         remaining
c         MB   reductions   conflicts        size  tier2     irredundant
c           level   restarts      redundant    glue   trail         variables
c
c i 19.93 27 196 0 22 6120 23 71761 18308 3.4 26 8 2 6 27% 9415 66652 13294 50%
c - 19.98 27 196 0 23 6145 23 71949 16032 3.4 26 8 2 6 27% 9397 66652 13294 50%
c - 20.35 27 186 0 24 6448 22 76746 15708 3.3 26 8 1 6 26% 9451 66652 13294 50%
c c 20.69 27 181 0 24 6791 21 79979 18701 3.3 26 8 1 6 26% 9527 66158 13200 50%
c d 20.69 27 181 0 24 6791 21 79979 18441 3.3 26 8 1 6 26% 9380 66117 13200 50%
c d 20.69 27 181 0 24 6791 21 79979 18437 3.3 26 8 1 6 26% 9338 66117 13179 50%
c u 20.72 27 181 0 24 6791 21 79979 17080 3.3 26 8 1 6 26% 9339 66117 13179 50%
c v 20.80 27 181 0 24 6791 21 79979 15504 3.3 26 8 1 6 26% 9345 66117 13179 50%
c w 20.83 27 181 0 24 6791 21 79979 15497 3.3 26 8 1 6 26% 9345 66117 13179 50%
c x 20.88 27 181 0 24 6791 21 79979 15490 3.3 26 8 1 6 26% 9381 65726 13179 50%
c = 21.00 27 181 0 24 6791 21 79979 15490 3.3 26 8 1 6 26% 9579 65726 13080 49%
c d 21.01 27 181 0 24 6791 21 79979 15409 3.3 26 8 1 6 26% 9363 65726 13078 49%
c t 21.02 27 181 0 24 6791 21 79979 15409 3.3 26 8 1 6 26% 9287 65726 13078 49%
c f 21.02 27 181 0 24 6791 21 79979 15409 3.3 26 8 1 6 26% 9289 65718 13079 49%
c u 21.06 27 181 0 24 6791 21 79979 15073 3.3 26 8 1 6 26% 9303 65718 13079 49%
c v 21.12 27 181 0 24 6791 21 79979 13815 3.3 26 8 1 6 26% 9308 65718 13079 49%
c w 21.16 27 181 0 24 6791 21 79979 13788 3.3 26 8 1 6 26% 9308 65718 13079 49%
c x 21.22 27 181 0 24 6791 21 79979 13786 3.3 26 8 1 6 26% 9312 64635 13079 49%
c = 21.53 27 181 0 24 6791 21 79979 13786 3.3 26 8 1 6 26% 9614 64602 12926 49%
c d 21.54 27 181 0 24 6791 21 79979 13582 3.3 26 8 1 6 26% 9264 64602 12926 49%
c
c  seconds   switched     rate         size/glue tier1    binary         remaining
c         MB   reductions   conflicts        size  tier2     irredundant
c           level   restarts      redundant    glue   trail         variables
c
c t 21.54 27 181 0 24 6791 21 79979 13582 3.3 26 8 1 6 26% 9213 64602 12926 49%
c f 21.55 27 181 0 24 6791 21 79979 13582 3.3 26 8 1 6 26% 9220 64570 12930 49%
c - 21.68 27 178 0 25 6895 21 81645 11923 3.3 25 8 1 6 26% 9221 64570 12930 49%
c - 21.92 27 170 0 26 7096 20 86646 13371 3.2 25 8 1 6 25% 9291 64570 12930 49%
c i 21.94 27 169 0 26 7114 20 87031 13691 3.2 25 8 1 6 25% 9303 64570 12929 49%
c - 22.16 27 163 0 27 7364 19 91747 14838 3.2 24 8 1 6 24% 9363 64570 12929 49%
c i 22.21 27 162 0 27 7429 19 92475 15447 3.2 24 8 1 6 24% 9382 64568 12928 49%
c i 22.26 27 159 0 27 7502 19 93950 16718 3.2 24 8 1 6 24% 9396 64568 12927 49%
c i 22.31 27 157 0 27 7543 18 94910 17586 3.1 24 8 1 6 24% 9409 64568 12925 49%
c i 22.32 27 157 0 27 7552 18 95224 17858 3.1 24 8 1 6 24% 9418 64568 12924 49%
c i 22.34 27 156 0 27 7562 18 95532 18140 3.1 24 8 1 6 24% 9423 64568 12921 49%
c i 22.34 27 156 0 27 7570 18 95645 18234 3.1 24 8 1 6 24% 9426 64568 12920 49%
c i 22.34 27 156 0 27 7576 18 95677 18259 3.1 24 8 1 6 24% 9428 64568 12918 49%
c i 22.34 27 156 0 27 7576 18 95846 18382 3.1 24 8 1 6 24% 9441 64568 12917 49%
c s 22.35 27 156 0 27 7577 18 95861 18397 3.1 24 8 1 6 24% 9447 63951 12917 49%
c e 22.43 27 156 0 27 7577 18 95861 18397 3.1 24 8 1 6 24% 5979 71120 11135 42%
c 2 22.43 27 156 0 27 7577 18 95861 18397 3.1 24 8 1 6 24% 5976 71120 11135 42%
c s 22.44 27 156 0 27 7577 18 95861 18397 3.1 24 8 1 6 24% 5994 70264 11135 42%
c e 22.45 27 156 0 27 7577 18 95861 18397 3.1 24 8 1 6 24% 5919 70429 11092 42%
c ^ 22.45 27 156 0 27 7577 18 95861 18397 3.1 24 8 1 6 24% 5919 70429 11092 42%
c
c  seconds   switched     rate         size/glue tier1    binary         remaining
c         MB   reductions   conflicts        size  tier2     irredundant
c           level   restarts      redundant    glue   trail         variables
c
c i 22.46 27 156 0 27 7579 18 95867 10348 3.1 24 8 1 6 24% 5919 70429 11091 42%
c } 22.46 27 156 0 27 7579 18 95897 10360 3.1 24 8 1 6 24% 5925 70426 11072 42%
c 0 22.46 27 156 0 27 7579 18 95897 10360 3.1 24 8 1 6 24% 5925 70426 11072 42%
c
c ---- [ result ] ------------------------------------------------------------
c
s UNSATISFIABLE
c
c ---- [ profiling ] ---------------------------------------------------------
c
c          15.04   66.95 %  search
c          15.04   66.95 %  focused
c           6.98   31.06 %  simplify
c           6.59   29.36 %  probe
c           2.62   11.66 %  sweep
c           2.35   10.45 %  vivify
c           0.59    2.64 %  factor
c           0.57    2.52 %  eliminate
c           0.45    2.00 %  substitute
c           0.42    1.87 %  congruence
c           0.39    1.73 %  preprocess
c           0.20    0.89 %  fastel
c           0.14    0.64 %  reduce
c           0.11    0.49 %  transitive
c           0.10    0.46 %  subsume
c           0.06    0.26 %  backbone
c           0.04    0.18 %  lucky
c           0.02    0.08 %  parse
c =============================================
c          22.46  100.00 %  total
c
c ---- [ statistics ] --------------------------------------------------------
c
c chronological:                         3383                4 %  conflicts
c conflicts:                            95897             4269.61 per second
c congruent:                              169                1 %  variables
c decisions:                          1852054               19.31 per conflict
c eliminated:                           13354               50 %  variables
c factored:                              4874               18 %  variables
c fast_eliminated:                       9050               68 %  eliminated
c fast_subsumed:                          232                1 %  per subsumed
c iterations:                              35                0 %  variables
c propagations:                      84210967          3749311    per second
c reductions:                              27             3552    interval
c reordered:                                4            23974    interval
c restarts:                              7579               13    interval
c strengthened:                          1429                0 %  checks
c substituted:                           6896               26 %  variables
c subsumed:                             27122                1 %  checks
c switched:                                 0                0    interval
c vivified:                             42781               13 %  checks
c
c ---- [ glue usage ] --------------------------------------------------------
c
c focused glue 1   used 135334 clauses 53.94% accumulated 53.94% tier1
c focused glue 2   used  55257 clauses 22.02% accumulated 75.96%
c focused glue 3-4 used  27700 clauses 11.04% accumulated 87.00%
c focused glue 5   used   7020 clauses  2.80% accumulated 89.80%
c focused glue 6   used   5142 clauses  2.05% accumulated 91.84% tier2
c
c ---- [ resources ] ---------------------------------------------------------
c
c maximum-resident-set-size:         28631040 bytes         27 MB
c process-time:                            22s              22.46 seconds
c
c ---- [ shutting down ] -----------------------------------------------------
c
c exit 20
